p cnf 100 158
-1 -2 92 -99 -100 0 
-3 93 0 
-4 38 54 66 67 80 91 94 -92 -99 -100 -40 -42 -46 -68 -71 0 
-5 37 -6 15 95 -92 -99 -100 -48 -51 -53 -77 -79 0 
-7 -8 21 27 59 65 84 -9 41 47 64 95 -92 -99 -100 -48 -51 -53 -77 -79 0 
-10 25 -11 39 49 85 89 -12 52 56 57 75 90 94 -92 -99 -100 -40 -42 -46 -68 -71 0 
-13 -11 39 49 85 89 95 -92 -99 -100 -48 -51 -53 -77 -79 0 
-14 -15 6 -12 52 56 57 75 90 94 -92 -99 -100 -40 -42 -46 -68 -71 0 
-15 6 -11 39 49 85 89 94 -92 -99 -100 -40 -42 -46 -68 -71 0 
-16 74 -9 41 47 64 95 -92 -99 -100 -48 -51 -53 -77 -79 0 
-15 6 -9 41 47 64 95 -92 -99 -100 -48 -51 -53 -77 -79 0 
-17 -9 41 47 64 94 -92 -99 -100 -40 -42 -46 -68 -71 0 
-18 -9 41 47 64 94 -92 -99 -100 -40 -42 -46 -68 -71 0 
-9 41 47 64 95 -92 -99 -100 -48 -51 -53 -77 -79 0 
-11 39 49 85 89 94 -92 -99 -100 -40 -42 -46 -68 -71 0 
-19 95 -92 -99 -100 -48 -51 -53 -77 -79 0 
-20 95 -92 -99 -100 -48 -51 -53 -77 -79 0 
-21 8 27 59 65 84 -22 32 33 55 76 86 94 -92 -99 -100 -40 -42 -46 -68 -71 0 
-23 -18 94 -92 -99 -100 -40 -42 -46 -68 -71 0 
-8 21 27 59 65 84 -24 95 -92 -99 -100 -48 -51 -53 -77 -79 0 
-25 10 -26 95 -92 -99 -100 -48 -51 -53 -77 -79 0 
-27 8 21 59 65 84 -13 96 -92 -99 -100 0 
-28 -29 -30 60 95 -92 -99 -100 -48 -51 -53 -77 -79 0 
-31 -32 22 33 55 76 86 96 -92 -99 -100 0 
-33 22 32 55 76 86 -34 94 -92 -99 -100 -40 -42 -46 -68 -71 0 
-35 94 -92 -99 -100 -40 -42 -46 -68 -71 0 
-28 95 -92 -99 -100 -48 -51 -53 -77 -79 0 
-36 82 -9 41 47 64 95 -92 -99 -100 -48 -51 -53 -77 -79 0 
-12 52 56 57 75 90 94 -92 -99 -100 -40 -42 -46 -68 -71 0 
-36 82 -11 39 49 85 89 94 -92 -99 -100 -40 -42 -46 -68 -71 0 
-20 94 -92 -99 -100 -40 -42 -46 -68 -71 0 
-28 -29 -37 5 95 -92 -99 -100 -48 -51 -53 -77 -79 0 
-38 4 54 66 67 80 91 -39 11 49 85 89 94 -92 -99 -100 -40 -42 -46 -68 -71 0 
-40 42 46 68 71 95 -92 -99 -100 -48 -51 -53 -77 -79 0 
-41 9 47 64 95 -92 -99 -100 -48 -51 -53 -77 -79 0 
-29 94 -92 -99 -100 -40 -42 -46 -68 -71 0 
-42 40 46 68 71 95 -92 -99 -100 -48 -51 -53 -77 -79 0 
-30 60 94 -92 -99 -100 -40 -42 -46 -68 -71 0 
-29 -43 94 -92 -99 -100 -40 -42 -46 -68 -71 0 
-15 6 -13 -20 94 -92 -99 -100 -40 -42 -46 -68 -71 0 
-28 -14 -7 -29 95 -92 -99 -100 -48 -51 -53 -77 -79 0 
-44 -45 94 -92 -99 -100 -40 -42 -46 -68 -71 0 
-46 40 42 68 71 95 -92 -99 -100 -48 -51 -53 -77 -79 0 
-47 9 41 64 94 -92 -99 -100 -40 -42 -46 -68 -71 0 
-48 51 53 77 79 94 -92 -99 -100 -40 -42 -46 -68 -71 0 
-49 11 39 85 89 94 -92 -99 -100 -40 -42 -46 -68 -71 0 
-28 -29 95 -92 -99 -100 -48 -51 -53 -77 -79 0 
-44 -10 25 -41 9 47 64 95 -92 -99 -100 -48 -51 -53 -77 -79 0 
-44 -34 -27 8 21 59 65 84 96 -92 -99 -100 0 
-43 -29 95 -92 -99 -100 -48 -51 -53 -77 -79 0 
-10 25 -27 8 21 59 65 84 96 -92 -99 -100 0 
-50 -41 9 47 64 95 -92 -99 -100 -48 -51 -53 -77 -79 0 
-43 -51 48 53 77 79 94 -92 -99 -100 -40 -42 -46 -68 -71 0 
-43 -29 94 -92 -99 -100 -40 -42 -46 -68 -71 0 
-52 12 56 57 75 90 94 -92 -99 -100 -40 -42 -46 -68 -71 0 
-44 -7 -41 9 47 64 95 -92 -99 -100 -48 -51 -53 -77 -79 0 
-4 38 54 66 67 80 91 96 -92 -99 -100 0 
-53 48 51 77 79 -26 94 -92 -99 -100 -40 -42 -46 -68 -71 0 
-20 -30 60 95 -92 -99 -100 -48 -51 -53 -77 -79 0 
-20 -29 -54 4 38 66 67 80 91 95 -92 -99 -100 -48 -51 -53 -77 -79 0 
-30 60 -55 22 32 33 76 86 94 -92 -99 -100 -40 -42 -46 -68 -71 0 
-56 12 52 57 75 90 96 -92 -99 -100 0 
-57 12 52 56 75 90 -20 94 -92 -99 -100 -40 -42 -46 -68 -71 0 
-20 -51 48 53 77 79 94 -92 -99 -100 -40 -42 -46 -68 -71 0 
-29 -55 22 32 33 76 86 95 -92 -99 -100 -48 -51 -53 -77 -79 0 
-58 97 0 
-7 -15 6 -59 8 21 27 65 84 -29 95 -92 -99 -100 -48 -51 -53 -77 -79 0 
-9 41 47 64 -8 21 27 59 65 84 94 -92 -99 -100 -40 -42 -46 -68 -71 0 
-27 8 21 59 65 84 96 -92 -99 -100 0 
-28 -14 -10 25 -30 60 95 -92 -99 -100 -48 -51 -53 -77 -79 0 
-14 -60 30 95 -92 -99 -100 -48 -51 -53 -77 -79 0 
-5 37 -60 30 95 -92 -99 -100 -48 -51 -53 -77 -79 0 
-15 6 -60 30 95 -92 -99 -100 -48 -51 -53 -77 -79 0 
-13 -42 40 46 68 71 -60 30 95 -92 -99 -100 -48 -51 -53 -77 -79 0 
-60 30 95 -92 -99 -100 -48 -51 -53 -77 -79 0 
-21 8 27 59 65 84 94 -92 -99 -100 -40 -42 -46 -68 -71 0 
-51 48 53 77 79 -43 94 -92 -99 -100 -40 -42 -46 -68 -71 0 
-28 -37 5 -30 60 95 -92 -99 -100 -48 -51 -53 -77 -79 0 
-59 8 21 27 65 84 95 -92 -99 -100 -48 -51 -53 -77 -79 0 
-7 -37 5 -41 9 47 64 95 -92 -99 -100 -48 -51 -53 -77 -79 0 
-15 6 -29 -61 95 -92 -99 -100 -48 -51 -53 -77 -79 0 
-7 -62 69 96 -92 -99 -100 0 
-12 52 56 57 75 90 95 -92 -99 -100 -48 -51 -53 -77 -79 0 
-63 72 -9 41 47 64 94 -92 -99 -100 -40 -42 -46 -68 -71 0 
-38 4 54 66 67 80 91 -64 9 41 47 -39 11 49 85 89 94 -92 -99 -100 -40 -42 -46 -68 -71 0 
-29 -50 95 -92 -99 -100 -48 -51 -53 -77 -79 0 
-9 41 47 64 94 -92 -99 -100 -40 -42 -46 -68 -71 0 
-44 -18 -5 37 95 -92 -99 -100 -48 -51 -53 -77 -79 0 
-9 41 47 64 -8 21 27 59 65 84 95 -92 -99 -100 -48 -51 -53 -77 -79 0 
-29 95 -92 -99 -100 -48 -51 -53 -77 -79 0 
-65 8 21 27 59 84 -42 40 46 68 71 95 -92 -99 -100 -48 -51 -53 -77 -79 0 
-44 -29 -66 4 38 54 67 80 91 95 -92 -99 -100 -48 -51 -53 -77 -79 0 
-7 96 -92 -99 -100 0 
-67 4 38 54 66 80 91 94 -92 -99 -100 -40 -42 -46 -68 -71 0 
-68 40 42 46 71 95 -92 -99 -100 -48 -51 -53 -77 -79 0 
-27 8 21 59 65 84 95 -92 -99 -100 -48 -51 -53 -77 -79 0 
-10 25 96 -92 -99 -100 0 
-14 98 -92 -99 -100 0 
-51 48 53 77 79 94 -92 -99 -100 -40 -42 -46 -68 -71 0 
-69 62 98 -92 -99 -100 0 
-5 37 -20 95 -92 -99 -100 -48 -51 -53 -77 -79 0 
-42 40 46 68 71 -43 95 -92 -99 -100 -48 -51 -53 -77 -79 0 
-30 60 -43 94 -92 -99 -100 -40 -42 -46 -68 -71 0 
-1 -70 -2 92 -99 -100 0 
-71 40 42 46 68 99 -92 -100 0 
-72 63 -73 94 -92 -99 -100 -40 -42 -46 -68 -71 0 
-22 32 33 55 76 86 -73 94 -92 -99 -100 -40 -42 -46 -68 -71 0 
-14 -15 6 -28 95 -92 -99 -100 -48 -51 -53 -77 -79 0 
-35 -34 94 -92 -99 -100 -40 -42 -46 -68 -71 0 
-56 12 52 57 75 90 -7 96 -92 -99 -100 0 
-44 -7 -56 12 52 57 75 90 -14 96 -92 -99 -100 0 
-56 12 52 57 75 90 -44 96 -92 -99 -100 0 
-31 -15 6 96 -92 -99 -100 0 
-74 16 -34 -72 63 94 -92 -99 -100 -40 -42 -46 -68 -71 0 
-75 12 52 56 57 90 -38 4 54 66 67 80 91 95 -92 -99 -100 -48 -51 -53 -77 -79 0 
-67 4 38 54 66 80 91 -76 22 32 33 55 86 94 -92 -99 -100 -40 -42 -46 -68 -71 0 
-67 4 38 54 66 80 91 -76 22 32 33 55 86 95 -92 -99 -100 -48 -51 -53 -77 -79 0 
-5 37 -25 10 94 -92 -99 -100 -40 -42 -46 -68 -71 0 
-18 94 -92 -99 -100 -40 -42 -46 -68 -71 0 
-7 -15 6 -77 48 51 53 79 94 -92 -99 -100 -40 -42 -46 -68 -71 0 
-78 95 -92 -99 -100 -48 -51 -53 -77 -79 0 
-13 -63 72 -79 48 51 53 77 94 -92 -99 -100 -40 -42 -46 -68 -71 0 
-80 4 38 54 66 67 91 94 -92 -99 -100 -40 -42 -46 -68 -71 0 
-5 37 -81 94 -92 -99 -100 -40 -42 -46 -68 -71 0 
-5 37 -81 95 -92 -99 -100 -48 -51 -53 -77 -79 0 
-82 36 94 -92 -99 -100 -40 -42 -46 -68 -71 0 
-63 72 -29 94 -92 -99 -100 -40 -42 -46 -68 -71 0 
-63 72 -29 95 -92 -99 -100 -48 -51 -53 -77 -79 0 
-31 -13 96 -92 -99 -100 0 
-5 37 -56 12 52 57 75 90 95 -92 -99 -100 -48 -51 -53 -77 -79 0 
-29 -43 95 -92 -99 -100 -48 -51 -53 -77 -79 0 
-40 42 46 68 71 100 -92 -99 0 
-7 -8 21 27 59 65 84 -12 52 56 57 75 90 95 -92 -99 -100 -48 -51 -53 -77 -79 0 
-13 -11 39 49 85 89 94 -92 -99 -100 -40 -42 -46 -68 -71 0 
-7 -10 25 -41 9 47 64 95 -92 -99 -100 -48 -51 -53 -77 -79 0 
-14 -7 -28 95 -92 -99 -100 -48 -51 -53 -77 -79 0 
-1 -83 92 -99 -100 0 
-84 8 21 27 59 65 -22 32 33 55 76 86 -73 94 -92 -99 -100 -40 -42 -46 -68 -71 0 
-5 37 -25 10 95 -92 -99 -100 -48 -51 -53 -77 -79 0 
-5 37 -6 15 94 -92 -99 -100 -40 -42 -46 -68 -71 0 
-13 -5 37 -6 15 94 -92 -99 -100 -40 -42 -46 -68 -71 0 
-26 -53 48 51 77 79 94 -92 -99 -100 -40 -42 -46 -68 -71 0 
-85 11 39 49 89 95 -92 -99 -100 -48 -51 -53 -77 -79 0 
-44 -75 12 52 56 57 90 -38 4 54 66 67 80 91 -39 11 49 85 89 94 -92 -99 -100 -40 -42 -46 -68 -71 0 
-38 4 54 66 67 80 91 -86 22 32 33 55 76 -39 11 49 85 89 94 -92 -99 -100 -40 -42 -46 -68 -71 0 
-87 94 -92 -99 -100 -40 -42 -46 -68 -71 0 
-15 6 -10 25 -11 39 49 85 89 95 -92 -99 -100 -48 -51 -53 -77 -79 0 
-88 -10 25 96 -92 -99 -100 0 
-7 -13 -9 41 47 64 95 -92 -99 -100 -48 -51 -53 -77 -79 0 
-89 11 39 49 85 94 -92 -99 -100 -40 -42 -46 -68 -71 0 
-29 -90 12 52 56 57 75 94 -92 -99 -100 -40 -42 -46 -68 -71 0 
-29 -90 12 52 56 57 75 95 -92 -99 -100 -48 -51 -53 -77 -79 0 
-61 94 -92 -99 -100 -40 -42 -46 -68 -71 0 
-61 95 -92 -99 -100 -48 -51 -53 -77 -79 0 
-91 4 38 54 66 67 80 94 -92 -99 -100 -40 -42 -46 -68 -71 0 
-29 -28 95 -92 -99 -100 -48 -51 -53 -77 -79 0 
-28 -36 82 -29 95 -92 -99 -100 -48 -51 -53 -77 -79 0 
-15 6 -44 -9 41 47 64 95 -92 -99 -100 -48 -51 -53 -77 -79 0 
